p cnf 55 161
a 26 38 0
e 1 2 3 4 5 6 7 8 9 10 11 12 13 14 15 16 17 18 19 20 21 22 23 24 25 27 28 29 30 31 32 33 34 35 36 37 39 40 41 42 43 44 45 46 47 48 49 50 51 52 53 54 55 0
-3 -1 0
-3 2 0
1 -2 3 0
7 5 0
7 6 0
-5 -6 -7 0
4 7 -8 0
-4 -7 -8 0
4 -7 8 0
-4 7 8 0
-9 -3 0
-9 8 0
3 -8 9 0
-2 10 -11 0
2 -10 -11 0
-2 -10 11 0
2 10 11 0
-11 -12 -13 0
11 12 -13 0
-11 12 13 0
11 -12 13 0
-14 9 0
-14 13 0
-9 -13 14 0
15 2 -16 0
-15 -2 -16 0
15 -2 16 0
-15 2 16 0
-2 16 -17 0
2 -16 -17 0
-2 -16 17 0
2 16 17 0
18 -17 0
18 -6 0
17 6 -18 0
-19 -12 0
-19 18 0
12 -18 19 0
20 15 0
20 -19 0
-15 19 -20 0
-21 -6 0
-21 -10 0
6 10 21 0
-22 -16 0
-22 -10 0
16 10 22 0
24 -22 0
24 23 0
22 -23 -24 0
-25 21 0
-25 -24 0
-21 24 25 0
26 20 0
26 25 0
-20 -25 -26 0
18 7 -27 0
-18 -7 -27 0
18 -7 27 0
-18 7 27 0
-27 -28 0
27 -28 0
29 18 0
29 3 0
-18 -3 -29 0
30 29 0
30 -19 0
-29 19 -30 0
-31 -3 0
-31 30 0
3 -30 31 0
32 -28 0
32 31 0
28 -31 -32 0
-33 -26 0
-33 32 0
26 -32 33 0
-34 11 0
-34 7 0
-11 -7 34 0
-35 8 0
-35 -16 0
-8 16 35 0
36 23 0
36 -15 0
-23 15 -36 0
37 36 0
37 -1 0
-36 1 -37 0
35 -37 -38 0
-35 37 -38 0
35 37 38 0
-35 -37 38 0
-39 -34 0
-39 38 0
34 -38 39 0
-40 33 0
-40 39 0
-33 -39 40 0
-41 12 0
-41 -6 0
-12 6 41 0
-43 3 0
-43 23 0
-3 -23 43 0
-17 -43 -44 0
17 43 -44 0
-17 43 44 0
17 -43 44 0
-42 -44 -45 0
42 44 -45 0
-42 44 45 0
42 -44 45 0
-46 -3 0
-46 18 0
3 -18 46 0
-47 45 0
-47 -46 0
-45 46 47 0
-48 41 0
-48 -47 0
-41 47 48 0
-6 -5 -49 0
6 5 -49 0
-6 5 49 0
6 -5 49 0
50 49 0
50 -11 0
-49 11 -50 0
51 -20 0
51 -12 0
20 12 -51 0
52 50 0
52 51 0
-50 -51 -52 0
-53 48 0
-53 52 0
-48 -52 53 0
40 53 -54 0
-40 -53 -54 0
40 -53 54 0
-40 53 54 0
-55 -14 0
-55 54 0
14 -54 55 0
28 -4 -10 -30 43 46 0
47 -37 -21 -1 -55 0
-25 41 39 46 0
-4 -1 -54 10 -3 43 46 0
-39 -52 -20 -31 43 -44 0
1 -43 -16 0
-43 54 -26 -32 0
11 -20 -7 16 28 0
-43 -36 39 -20 42 31 -24 16 0
-7 -16 44 3 -46 0
-48 -22 20 0
5 37 20 -18 -2 0
38 -2 -28 33 10 0
-2 -52 6 17 -20 12 21 0
-51 9 -17 -46 6 24 0
55 0
